Gurobi 12.0.3:   lim:time = 14400
  mip:bestbound = 1
Set parameter LogToConsole to value 1
  tech:outlev = 1
Set parameter InfUnbdInfo to value 1
Gurobi Optimizer version 12.0.3 build v12.0.3rc0 (win64 - Windows 11.0 (26100.2))

CPU model: 12th Gen Intel(R) Core(TM) i7-12700, instruction set [SSE2|AVX|AVX2]
Thread count: 12 physical cores, 20 logical processors, using up to 20 threads

Non-default parameters:
TimeLimit  14400
InfUnbdInfo  1

Optimize a model with 448 rows, 948 columns and 4823 nonzeros
Model fingerprint: 0xfaecb696
Model has 4 quadratic constraints
Variable types: 30 continuous, 918 integer (0 binary)
Coefficient statistics:
  Matrix range     [1e+00, 1e+05]
  QMatrix range    [1e+00, 1e+00]
  QLMatrix range   [3e+00, 2e+01]
  Objective range  [8e+00, 1e+02]
  Bounds range     [1e+00, 9e+01]
  RHS range        [1e+00, 1e+05]
  QRHS range       [1e+02, 1e+02]
Presolve removed 33 rows and 40 columns
Presolve time: 0.02s
Presolved: 899 rows, 1284 columns, 6767 nonzeros
Variable types: 18 continuous, 1266 integer (1209 binary)
Found heuristic solution: objective 852.0800000

Root relaxation: objective 1.946417e+02, 115 iterations, 0.00 seconds (0.00 work units)

    Nodes    |    Current Node    |     Objective Bounds      |     Work
 Expl Unexpl |  Obj  Depth IntInf | Incumbent    BestBd   Gap | It/Node Time

     0     0  194.64170    0   35  852.08000  194.64170  77.2%     -    0s
H    0     0                     828.3600000  194.64170  76.5%     -    0s
H    0     0                     672.7700000  194.64170  71.1%     -    0s
     0     0  248.85556    0   37  672.77000  248.85556  63.0%     -    0s
H    0     0                     627.9500000  248.85556  60.4%     -    0s
     0     0  266.36000    0   20  627.95000  266.36000  57.6%     -    0s
     0     0  266.36000    0   21  627.95000  266.36000  57.6%     -    0s
     0     0  266.36000    0   21  627.95000  266.36000  57.6%     -    0s
     0     0  266.36000    0   21  627.95000  266.36000  57.6%     -    0s
H    0     0                     569.3200000  266.36000  53.2%     -    0s
H    0     0                     509.8400000  266.36000  47.8%     -    0s
     0     0  266.36000    0   18  509.84000  266.36000  47.8%     -    0s
     0     2  266.36000    0   18  509.84000  266.36000  47.8%     -    0s
H   28    40                     507.2200000  266.36842  47.5%  18.7    0s
H   28    40                     485.0100000  266.36842  45.1%  18.7    0s
H   32    40                     475.5400000  266.37329  44.0%  17.7    0s
*  601   506              35     449.9000000  272.08254  39.5%  11.5    0s
*  774   694              54     442.5700000  276.40500  37.5%  11.0    0s
* 1338  1037              19     440.4800000  277.42817  37.0%  10.5    0s
* 1340  1017              18     416.8100000  277.42817  33.4%  10.4    0s
H 1650  1031                     373.8600000  277.42817  25.8%   9.8    0s
H 3713  1515                     367.0500000  288.05000  21.5%  10.3    0s
H 4079  1606                     356.3100000  292.69000  17.9%  11.7    2s
H 4091  1541                     349.5000000  292.69000  16.3%  11.7    2s
H 5096  1655                     342.4400000  293.03079  14.4%  11.8    2s
 22084  5776     cutoff   46       342.44000  301.35556  12.0%  11.3    5s
 36546  2930  318.76909   43   13  342.44000  318.30000  7.05%  12.3   10s

Cutting planes:
  Learned: 15
  Gomory: 26
  Cover: 25
  Implied bound: 26
  Clique: 1
  MIR: 15
  Mixing: 12
  StrongCG: 1
  Flow cover: 148
  GUB cover: 2
  Inf proof: 32
  Zero half: 24
  RLT: 74
  Relax-and-lift: 1

Explored 47005 nodes (587410 simplex iterations) in 11.77 seconds (7.81 work units)
Thread count was 20 (of 20 available processors)

Solution count 10: 342.44 342.44 349.5 ... 449.9

Optimal solution found (tolerance 1.00e-04)
Best objective 3.424400000000e+02, best bound 3.424400000000e+02, gap 0.0000%

AMPL MP initial flat model has 948 variables (0 integer, 918 binary);
Objectives: 1 linear; 
Constraints:  448 linear; 4 quadratic;

AMPL MP final model has 948 variables (0 integer, 918 binary);
Objectives: 1 linear; 
Constraints:  448 linear; 4 quadratic;


-----RESULTS INFO-----
running_time:  11.812999999999999
TC.best_bound:  342.44
TC:  342.44
MIP Gap (%):  0
=== Vehicle Routes ===
Vehicle 1: 0 → 12
Vehicle 1: 12 → 16
Vehicle 1: 16 → 22
Vehicle 2: 0 → 22
Vehicle 3: 0 → 9
Vehicle 3: 1 → 3
Vehicle 3: 2 → 22
Vehicle 3: 3 → 17
Vehicle 3: 4 → 13
Vehicle 3: 5 → 2
Vehicle 3: 9 → 1
Vehicle 3: 13 → 5
Vehicle 3: 17 → 4
Vehicle 4: 0 → 22

=== Full Vehicle Routes ===
Vehicle 1: 0 → 12 → 16 → 0 (34<100)
Vehicle 2: 0 → 0 (0<100)
Vehicle 3: 0 → 9 → 1 → 3 → 17 → 4 → 13 → 5 → 2 → 0 (98<100)
Vehicle 4: 0 → 0 (0<100)
Arc used by MRT line: y variables:
Customer assigment to PL: u variables:
6 17
7 16
8 12
10 13
11 13
Node is served by regular vehicle: g variables:
1
2
3
4
5
9
12
13
16
17
Customer assigment to Home delivery: gm variables:
1
2
3
4
5
9
Node total demands: ntd variables:
1 9 1
2 3 1
3 19 1
4 6 1
5 7 1
9 18 1
10 0 0
11 0 0
18 0 0
19 0 0
20 0 0
21 0 0
12 20 1
13 20 1
14 0 0
15 0 0
16 14 1
17 16 1
Customer's demand delivered to PL: l variables:
6
7
8
10
11
Lockers load <= capacity:
0 <= 100
0 <= 95
0 <= 81
0 <= 74
20 <= 89
20 <= 76
0 <= 70
0 <= 94
14 <= 79
16 <= 97
